(declare-fun a_ack!36 () (_ BitVec 64))
(assert (not (fp.gt (fp.abs ((_ to_fp 11 53) a_ack!36))
            ((_ to_fp 11 53) #x3ff0000000000000))))
(assert (not (fp.eq (fp.abs ((_ to_fp 11 53) a_ack!36))
            ((_ to_fp 11 53) #x3ff0000000000000))))
(assert (fp.geq (fp.abs ((_ to_fp 11 53) a_ack!36))
        ((_ to_fp 11 53) #x3fe0000000000000)))

(check-sat)
(exit)
